 H Si  H Si  H 
 1.0000000000000000
   140.0511458893219583    0.0000000000000000    0.0000000000000000
     0.0000000000000000  121.2906991901310789   0.0
     0.0000000000000000   0.0   11.8237444448981677
 1296 2592 2592 2592 1296
Cartesian
  3.8903087688285600 119.0441656114449955  0.9675443872004300
  7.7806183768652799 119.0441656114449955  0.9675443872004300
 11.6709279849020007 119.0441656114449955  0.9675443872004300
 15.5612375929386992 119.0441656114449955  0.9675443872004300
 19.4515472009754014 119.0441656114449955  0.9675443872004300
 23.3418568090121994 119.0441656114449955  0.9675443872004300
 27.2321664170489015 119.0441656114449955  0.9675443872004300
 31.1224760250856001 119.0441656114449955  0.9675443872004300
 35.0127856331222986 119.0441656114449955  0.9675443872004300
 38.9030952411591002 119.0441656114449955  0.9675443872004300
 42.7934048491958023 119.0441656114449955  0.9675443872004300
 46.6837144572324974 119.0441656114449955  0.9675443872004300
 50.5740240652691995 119.0441656114449955  0.9675443872004300
 54.4643336733059016 119.0441656114449955  0.9675443872004300
 58.3546432813427032 119.0441656114449955  0.9675443872004300
 62.2449528893793982 119.0441656114449955  0.9675443872004300
 66.1352624974160932 119.0441656114449955  0.9675443872004300
 70.0255721054527953 119.0441656114449955  0.9675443872004300
 73.9158817134894974 119.0441656114449955  0.9675443872004300
 77.8061913215262990 119.0441656114449955  0.9675443872004300
 81.6965009295630011 119.0441656114449955  0.9675443872004300
 85.5868105375997033 119.0441656114449955  0.9675443872004300
 89.4771201456364054 119.0441656114449955  0.9675443872004300
 93.3674297536732070 119.0441656114449955  0.9675443872004300
 97.2577393617098949 119.0441656114449955  0.9675443872004300
 101.1480489697469949 119.0441656114449955  0.9675443872004300
 105.0383585777830007 119.0441656114449955  0.9675443872004300
 108.9286681858200012 119.0441656114449955  0.9675443872004300
 112.8189777938570018 119.0441656114449955  0.9675443872004300
 116.7092874018929933 119.0441656114449955  0.9675443872004300
 120.5995970099299939 119.0441656114449955  0.9675443872004300
 124.4899066179669944 119.0441656114449955  0.9675443872004300
 128.3802162260039950 119.0441656114449955  0.9675443872004300
 132.2705258340400007 119.0441656114449955  0.9675443872004300
 136.1608354420770013 119.0441656114449955  0.9675443872004300
 140.0511450501140018 119.0441656114449955  0.9675443872004300
  1.9451545136876700 115.6749795228300002  0.9678842426786710
  5.8354641217243897 115.6749795228300002  0.9678842426786710
  9.7257737297611104 115.6749795228300002  0.9678842426786710
 13.6160833377978001 115.6749795228300002  0.9678842426786710
 17.5063929458346017 115.6749795228300002  0.9678842426786710
 21.3967025538713003 115.6749795228300002  0.9678842426786710
 25.2870121619079988 115.6749795228300002  0.9678842426786710
 29.1773217699447009 115.6749795228300002  0.9678842426786710
 33.0676313779813995 115.6749795228300002  0.9678842426786710
 36.9579409860182011 115.6749795228300002  0.9678842426786710
 40.8482505940549032 115.6749795228300002  0.9678842426786710
 44.7385602020915982 115.6749795228300002  0.9678842426786710
 48.6288698101283003 115.6749795228300002  0.9678842426786710
 52.5191794181650025 115.6749795228300002  0.9678842426786710
 56.4094890262017969 115.6749795228300002  0.9678842426786710
 60.2997986342384991 115.6749795228300002  0.9678842426786710
 64.1901082422752012 115.6749795228300002  0.9678842426786710
 68.0804178503119033 115.6749795228300002  0.9678842426786710
 71.9707274583486054 115.6749795228300002  0.9678842426786710
 75.8610370663854070 115.6749795228300002  0.9678842426786710
 79.7513466744220949 115.6749795228300002  0.9678842426786710
 83.6416562824587970 115.6749795228300002  0.9678842426786710
 87.5319658904955986 115.6749795228300002  0.9678842426786710
 91.4222754985323007 115.6749795228300002  0.9678842426786710
 95.3125851065690028 115.6749795228300002  0.9678842426786710
 99.2028947146057050 115.6749795228300002  0.9678842426786710
 103.0932043226419950 115.6749795228300002  0.9678842426786710
 106.9835139306789955 115.6749795228300002  0.9678842426786710
 110.8738235387159961 115.6749795228300002  0.9678842426786710
 114.7641331467529966 115.6749795228300002  0.9678842426786710
 118.6544427547890024 115.6749795228300002  0.9678842426786710
 122.5447523628260029 115.6749795228300002  0.9678842426786710
 126.4350619708630035 115.6749795228300002  0.9678842426786710
 130.3253715788989950 115.6749795228300002  0.9678842426786710
 134.2156811869359956 115.6749795228300002  0.9678842426786710
 138.1059907949729961 115.6749795228300002  0.9678842426786710
  3.8903087688285600 112.3057934342159996  0.9682240981569110
  7.7806183768652799 112.3057934342159996  0.9682240981569110
 11.6709279849020007 112.3057934342159996  0.9682240981569110
 15.5612375929386992 112.3057934342159996  0.9682240981569110
 19.4515472009754014 112.3057934342159996  0.9682240981569110
 23.3418568090121994 112.3057934342159996  0.9682240981569110
 27.2321664170489015 112.3057934342159996  0.9682240981569110
 31.1224760250856001 112.3057934342159996  0.9682240981569110
 35.0127856331222986 112.3057934342159996  0.9682240981569110
 38.9030952411591002 112.3057934342159996  0.9682240981569110
 42.7934048491958023 112.3057934342159996  0.9682240981569110
 46.6837144572324974 112.3057934342159996  0.9682240981569110
 50.5740240652691995 112.3057934342159996  0.9682240981569110
 54.4643336733059016 112.3057934342159996  0.9682240981569110
 58.3546432813427032 112.3057934342159996  0.9682240981569110
 62.2449528893793982 112.3057934342159996  0.9682240981569110
 66.1352624974160932 112.3057934342159996  0.9682240981569110
 70.0255721054527953 112.3057934342159996  0.9682240981569110
 73.9158817134894974 112.3057934342159996  0.9682240981569110
 77.8061913215262990 112.3057934342159996  0.9682240981569110
 81.6965009295630011 112.3057934342159996  0.9682240981569110
 85.5868105375997033 112.3057934342159996  0.9682240981569110
 89.4771201456364054 112.3057934342159996  0.9682240981569110
 93.3674297536732070 112.3057934342159996  0.9682240981569110
 97.2577393617098949 112.3057934342159996  0.9682240981569110
 101.1480489697469949 112.3057934342159996  0.9682240981569110
 105.0383585777830007 112.3057934342159996  0.9682240981569110
 108.9286681858200012 112.3057934342159996  0.9682240981569110
 112.8189777938570018 112.3057934342159996  0.9682240981569110
 116.7092874018929933 112.3057934342159996  0.9682240981569110
 120.5995970099299939 112.3057934342159996  0.9682240981569110
 124.4899066179669944 112.3057934342159996  0.9682240981569110
 128.3802162260039950 112.3057934342159996  0.9682240981569110
 132.2705258340400007 112.3057934342159996  0.9682240981569110
 136.1608354420770013 112.3057934342159996  0.9682240981569110
 140.0511450501140018 112.3057934342159996  0.9682240981569110
  1.9451545136876700 108.9366073456010042  0.9685639536351510
  5.8354641217243897 108.9366073456010042  0.9685639536351510
  9.7257737297611104 108.9366073456010042  0.9685639536351510
 13.6160833377978001 108.9366073456010042  0.9685639536351510
 17.5063929458346017 108.9366073456010042  0.9685639536351510
 21.3967025538713003 108.9366073456010042  0.9685639536351510
 25.2870121619079988 108.9366073456010042  0.9685639536351510
 29.1773217699447009 108.9366073456010042  0.9685639536351510
 33.0676313779813995 108.9366073456010042  0.9685639536351510
 36.9579409860182011 108.9366073456010042  0.9685639536351510
 40.8482505940549032 108.9366073456010042  0.9685639536351510
 44.7385602020915982 108.9366073456010042  0.9685639536351510
 48.6288698101283003 108.9366073456010042  0.9685639536351510
 52.5191794181650025 108.9366073456010042  0.9685639536351510
 56.4094890262017969 108.9366073456010042  0.9685639536351510
 60.2997986342384991 108.9366073456010042  0.9685639536351510
 64.1901082422752012 108.9366073456010042  0.9685639536351510
 68.0804178503119033 108.9366073456010042  0.9685639536351510
 71.9707274583486054 108.9366073456010042  0.9685639536351510
 75.8610370663854070 108.9366073456010042  0.9685639536351510
 79.7513466744220949 108.9366073456010042  0.9685639536351510
 83.6416562824587970 108.9366073456010042  0.9685639536351510
 87.5319658904955986 108.9366073456010042  0.9685639536351510
 91.4222754985323007 108.9366073456010042  0.9685639536351510
 95.3125851065690028 108.9366073456010042  0.9685639536351510
 99.2028947146057050 108.9366073456010042  0.9685639536351510
 103.0932043226419950 108.9366073456010042  0.9685639536351510
 106.9835139306789955 108.9366073456010042  0.9685639536351510
 110.8738235387159961 108.9366073456010042  0.9685639536351510
 114.7641331467529966 108.9366073456010042  0.9685639536351510
 118.6544427547890024 108.9366073456010042  0.9685639536351510
 122.5447523628260029 108.9366073456010042  0.9685639536351510
 126.4350619708630035 108.9366073456010042  0.9685639536351510
 130.3253715788989950 108.9366073456010042  0.9685639536351510
 134.2156811869359956 108.9366073456010042  0.9685639536351510
 138.1059907949729961 108.9366073456010042  0.9685639536351510
  3.8903087688285600 105.5674212569859947  0.9689038091133920
  7.7806183768652799 105.5674212569859947  0.9689038091133920
 11.6709279849020007 105.5674212569859947  0.9689038091133920
 15.5612375929386992 105.5674212569859947  0.9689038091133920
 19.4515472009754014 105.5674212569859947  0.9689038091133920
 23.3418568090121994 105.5674212569859947  0.9689038091133920
 27.2321664170489015 105.5674212569859947  0.9689038091133920
 31.1224760250856001 105.5674212569859947  0.9689038091133920
 35.0127856331222986 105.5674212569859947  0.9689038091133920
 38.9030952411591002 105.5674212569859947  0.9689038091133920
 42.7934048491958023 105.5674212569859947  0.9689038091133920
 46.6837144572324974 105.5674212569859947  0.9689038091133920
 50.5740240652691995 105.5674212569859947  0.9689038091133920
 54.4643336733059016 105.5674212569859947  0.9689038091133920
 58.3546432813427032 105.5674212569859947  0.9689038091133920
 62.2449528893793982 105.5674212569859947  0.9689038091133920
 66.1352624974160932 105.5674212569859947  0.9689038091133920
 70.0255721054527953 105.5674212569859947  0.9689038091133920
 73.9158817134894974 105.5674212569859947  0.9689038091133920
 77.8061913215262990 105.5674212569859947  0.9689038091133920
 81.6965009295630011 105.5674212569859947  0.9689038091133920
 85.5868105375997033 105.5674212569859947  0.9689038091133920
 89.4771201456364054 105.5674212569859947  0.9689038091133920
 93.3674297536732070 105.5674212569859947  0.9689038091133920
 97.2577393617098949 105.5674212569859947  0.9689038091133920
 101.1480489697469949 105.5674212569859947  0.9689038091133920
 105.0383585777830007 105.5674212569859947  0.9689038091133920
 108.9286681858200012 105.5674212569859947  0.9689038091133920
 112.8189777938570018 105.5674212569859947  0.9689038091133920
 116.7092874018929933 105.5674212569859947  0.9689038091133920
 120.5995970099299939 105.5674212569859947  0.9689038091133920
 124.4899066179669944 105.5674212569859947  0.9689038091133920
 128.3802162260039950 105.5674212569859947  0.9689038091133920
 132.2705258340400007 105.5674212569859947  0.9689038091133920
 136.1608354420770013 105.5674212569859947  0.9689038091133920
 140.0511450501140018 105.5674212569859947  0.9689038091133920
  1.9451545136876700 102.1982351683709993  0.9692436645916320
  5.8354641217243897 102.1982351683709993  0.9692436645916320
  9.7257737297611104 102.1982351683709993  0.9692436645916320
 13.6160833377978001 102.1982351683709993  0.9692436645916320
 17.5063929458346017 102.1982351683709993  0.9692436645916320
 21.3967025538713003 102.1982351683709993  0.9692436645916320
 25.2870121619079988 102.1982351683709993  0.9692436645916320
 29.1773217699447009 102.1982351683709993  0.9692436645916320
 33.0676313779813995 102.1982351683709993  0.9692436645916320
 36.9579409860182011 102.1982351683709993  0.9692436645916320
 40.8482505940549032 102.1982351683709993  0.9692436645916320
 44.7385602020915982 102.1982351683709993  0.9692436645916320
 48.6288698101283003 102.1982351683709993  0.9692436645916320
 52.5191794181650025 102.1982351683709993  0.9692436645916320
 56.4094890262017969 102.1982351683709993  0.9692436645916320
 60.2997986342384991 102.1982351683709993  0.9692436645916320
 64.1901082422752012 102.1982351683709993  0.9692436645916320
 68.0804178503119033 102.1982351683709993  0.9692436645916320
 71.9707274583486054 102.1982351683709993  0.9692436645916320
 75.8610370663854070 102.1982351683709993  0.9692436645916320
 79.7513466744220949 102.1982351683709993  0.9692436645916320
 83.6416562824587970 102.1982351683709993  0.9692436645916320
 87.5319658904955986 102.1982351683709993  0.9692436645916320
 91.4222754985323007 102.1982351683709993  0.9692436645916320
 95.3125851065690028 102.1982351683709993  0.9692436645916320
 99.2028947146057050 102.1982351683709993  0.9692436645916320
 103.0932043226419950 102.1982351683709993  0.9692436645916320
 106.9835139306789955 102.1982351683709993  0.9692436645916320
 110.8738235387159961 102.1982351683709993  0.9692436645916320
 114.7641331467529966 102.1982351683709993  0.9692436645916320
 118.6544427547890024 102.1982351683709993  0.9692436645916320
 122.5447523628260029 102.1982351683709993  0.9692436645916320
 126.4350619708630035 102.1982351683709993  0.9692436645916320
 130.3253715788989950 102.1982351683709993  0.9692436645916320
 134.2156811869359956 102.1982351683709993  0.9692436645916320
 138.1059907949729961 102.1982351683709993  0.9692436645916320
  3.8903087688285600 98.8290490797565013  0.9695835200698730
  7.7806183768652799 98.8290490797565013  0.9695835200698730
 11.6709279849020007 98.8290490797565013  0.9695835200698730
 15.5612375929386992 98.8290490797565013  0.9695835200698730
 19.4515472009754014 98.8290490797565013  0.9695835200698730
 23.3418568090121994 98.8290490797565013  0.9695835200698730
 27.2321664170489015 98.8290490797565013  0.9695835200698730
 31.1224760250856001 98.8290490797565013  0.9695835200698730
 35.0127856331222986 98.8290490797565013  0.9695835200698730
 38.9030952411591002 98.8290490797565013  0.9695835200698730
 42.7934048491958023 98.8290490797565013  0.9695835200698730
 46.6837144572324974 98.8290490797565013  0.9695835200698730
 50.5740240652691995 98.8290490797565013  0.9695835200698730
 54.4643336733059016 98.8290490797565013  0.9695835200698730
 58.3546432813427032 98.8290490797565013  0.9695835200698730
 62.2449528893793982 98.8290490797565013  0.9695835200698730
 66.1352624974160932 98.8290490797565013  0.9695835200698730
 70.0255721054527953 98.8290490797565013  0.9695835200698730
 73.9158817134894974 98.8290490797565013  0.9695835200698730
 77.8061913215262990 98.8290490797565013  0.9695835200698730
 81.6965009295630011 98.8290490797565013  0.9695835200698730
 85.5868105375997033 98.8290490797565013  0.9695835200698730
 89.4771201456364054 98.8290490797565013  0.9695835200698730
 93.3674297536732070 98.8290490797565013  0.9695835200698730
 97.2577393617098949 98.8290490797565013  0.9695835200698730
 101.1480489697469949 98.8290490797565013  0.9695835200698730
 105.0383585777830007 98.8290490797565013  0.9695835200698730
 108.9286681858200012 98.8290490797565013  0.9695835200698730
 112.8189777938570018 98.8290490797565013  0.9695835200698730
 116.7092874018929933 98.8290490797565013  0.9695835200698730
 120.5995970099299939 98.8290490797565013  0.9695835200698730
 124.4899066179669944 98.8290490797565013  0.9695835200698730
 128.3802162260039950 98.8290490797565013  0.9695835200698730
 132.2705258340400007 98.8290490797565013  0.9695835200698730
 136.1608354420770013 98.8290490797565013  0.9695835200698730
 140.0511450501140018 98.8290490797565013  0.9695835200698730
  1.9451545136876700 95.4598629911418044  0.9699233755481130
  5.8354641217243897 95.4598629911418044  0.9699233755481130
  9.7257737297611104 95.4598629911418044  0.9699233755481130
 13.6160833377978001 95.4598629911418044  0.9699233755481130
 17.5063929458346017 95.4598629911418044  0.9699233755481130
 21.3967025538713003 95.4598629911418044  0.9699233755481130
 25.2870121619079988 95.4598629911418044  0.9699233755481130
 29.1773217699447009 95.4598629911418044  0.9699233755481130
 33.0676313779813995 95.4598629911418044  0.9699233755481130
 36.9579409860182011 95.4598629911418044  0.9699233755481130
 40.8482505940549032 95.4598629911418044  0.9699233755481130
 44.7385602020915982 95.4598629911418044  0.9699233755481130
 48.6288698101283003 95.4598629911418044  0.9699233755481130
 52.5191794181650025 95.4598629911418044  0.9699233755481130
 56.4094890262017969 95.4598629911418044  0.9699233755481130
 60.2997986342384991 95.4598629911418044  0.9699233755481130
 64.1901082422752012 95.4598629911418044  0.9699233755481130
 68.0804178503119033 95.4598629911418044  0.9699233755481130
 71.9707274583486054 95.4598629911418044  0.9699233755481130
 75.8610370663854070 95.4598629911418044  0.9699233755481130
 79.7513466744220949 95.4598629911418044  0.9699233755481130
 83.6416562824587970 95.4598629911418044  0.9699233755481130
 87.5319658904955986 95.4598629911418044  0.9699233755481130
 91.4222754985323007 95.4598629911418044  0.9699233755481130
 95.3125851065690028 95.4598629911418044  0.9699233755481130
 99.2028947146057050 95.4598629911418044  0.9699233755481130
 103.0932043226419950 95.4598629911418044  0.9699233755481130
 106.9835139306789955 95.4598629911418044  0.9699233755481130
 110.8738235387159961 95.4598629911418044  0.9699233755481130
 114.7641331467529966 95.4598629911418044  0.9699233755481130
 118.6544427547890024 95.4598629911418044  0.9699233755481130
 122.5447523628260029 95.4598629911418044  0.9699233755481130
 126.4350619708630035 95.4598629911418044  0.9699233755481130
 130.3253715788989950 95.4598629911418044  0.9699233755481130
 134.2156811869359956 95.4598629911418044  0.9699233755481130
 138.1059907949729961 95.4598629911418044  0.9699233755481130
  3.8903087688285600 92.0906769025269938  0.9702632310263540
  7.7806183768652799 92.0906769025269938  0.9702632310263540
 11.6709279849020007 92.0906769025269938  0.9702632310263540
 15.5612375929386992 92.0906769025269938  0.9702632310263540
 19.4515472009754014 92.0906769025269938  0.9702632310263540
 23.3418568090121994 92.0906769025269938  0.9702632310263540
 27.2321664170489015 92.0906769025269938  0.9702632310263540
 31.1224760250856001 92.0906769025269938  0.9702632310263540
 35.0127856331222986 92.0906769025269938  0.9702632310263540
 38.9030952411591002 92.0906769025269938  0.9702632310263540
 42.7934048491958023 92.0906769025269938  0.9702632310263540
 46.6837144572324974 92.0906769025269938  0.9702632310263540
 50.5740240652691995 92.0906769025269938  0.9702632310263540
 54.4643336733059016 92.0906769025269938  0.9702632310263540
 58.3546432813427032 92.0906769025269938  0.9702632310263540
 62.2449528893793982 92.0906769025269938  0.9702632310263540
 66.1352624974160932 92.0906769025269938  0.9702632310263540
 70.0255721054527953 92.0906769025269938  0.9702632310263540
 73.9158817134894974 92.0906769025269938  0.9702632310263540
 77.8061913215262990 92.0906769025269938  0.9702632310263540
 81.6965009295630011 92.0906769025269938  0.9702632310263540
 85.5868105375997033 92.0906769025269938  0.9702632310263540
 89.4771201456364054 92.0906769025269938  0.9702632310263540
 93.3674297536732070 92.0906769025269938  0.9702632310263540
 97.2577393617098949 92.0906769025269938  0.9702632310263540
 101.1480489697469949 92.0906769025269938  0.9702632310263540
 105.0383585777830007 92.0906769025269938  0.9702632310263540
 108.9286681858200012 92.0906769025269938  0.9702632310263540
 112.8189777938570018 92.0906769025269938  0.9702632310263540
 116.7092874018929933 92.0906769025269938  0.9702632310263540
 120.5995970099299939 92.0906769025269938  0.9702632310263540
 124.4899066179669944 92.0906769025269938  0.9702632310263540
 128.3802162260039950 92.0906769025269938  0.9702632310263540
 132.2705258340400007 92.0906769025269938  0.9702632310263540
 136.1608354420770013 92.0906769025269938  0.9702632310263540
 140.0511450501140018 92.0906769025269938  0.9702632310263540
  1.9451545136876700 88.7214908139122969  0.9706030865045940
  5.8354641217243897 88.7214908139122969  0.9706030865045940
  9.7257737297611104 88.7214908139122969  0.9706030865045940
 13.6160833377978001 88.7214908139122969  0.9706030865045940
 17.5063929458346017 88.7214908139122969  0.9706030865045940
 21.3967025538713003 88.7214908139122969  0.9706030865045940
 25.2870121619079988 88.7214908139122969  0.9706030865045940
 29.1773217699447009 88.7214908139122969  0.9706030865045940
 33.0676313779813995 88.7214908139122969  0.9706030865045940
 36.9579409860182011 88.7214908139122969  0.9706030865045940
 40.8482505940549032 88.7214908139122969  0.9706030865045940
 44.7385602020915982 88.7214908139122969  0.9706030865045940
 48.6288698101283003 88.7214908139122969  0.9706030865045940
 52.5191794181650025 88.7214908139122969  0.9706030865045940
 56.4094890262017969 88.7214908139122969  0.9706030865045940
 60.2997986342384991 88.7214908139122969  0.9706030865045940
 64.1901082422752012 88.7214908139122969  0.9706030865045940
 68.0804178503119033 88.7214908139122969  0.9706030865045940
 71.9707274583486054 88.7214908139122969  0.9706030865045940
 75.8610370663854070 88.7214908139122969  0.9706030865045940
 79.7513466744220949 88.7214908139122969  0.9706030865045940
 83.6416562824587970 88.7214908139122969  0.9706030865045940
 87.5319658904955986 88.7214908139122969  0.9706030865045940
 91.4222754985323007 88.7214908139122969  0.9706030865045940
 95.3125851065690028 88.7214908139122969  0.9706030865045940
 99.2028947146057050 88.7214908139122969  0.9706030865045940
 103.0932043226419950 88.7214908139122969  0.9706030865045940
 106.9835139306789955 88.7214908139122969  0.9706030865045940
 110.8738235387159961 88.7214908139122969  0.9706030865045940
 114.7641331467529966 88.7214908139122969  0.9706030865045940
 118.6544427547890024 88.7214908139122969  0.9706030865045940
 122.5447523628260029 88.7214908139122969  0.9706030865045940
 126.4350619708630035 88.7214908139122969  0.9706030865045940
 130.3253715788989950 88.7214908139122969  0.9706030865045940
 134.2156811869359956 88.7214908139122969  0.9706030865045940
 138.1059907949729961 88.7214908139122969  0.9706030865045940
  3.8903087688285600 85.3523047252975005  0.9709429419828340
  7.7806183768652799 85.3523047252975005  0.9709429419828340
 11.6709279849020007 85.3523047252975005  0.9709429419828340
 15.5612375929386992 85.3523047252975005  0.9709429419828340
 19.4515472009754014 85.3523047252975005  0.9709429419828340
 23.3418568090121994 85.3523047252975005  0.9709429419828340
 27.2321664170489015 85.3523047252975005  0.9709429419828340
 31.1224760250856001 85.3523047252975005  0.9709429419828340
 35.0127856331222986 85.3523047252975005  0.9709429419828340
 38.9030952411591002 85.3523047252975005  0.9709429419828340
 42.7934048491958023 85.3523047252975005  0.9709429419828340
 46.6837144572324974 85.3523047252975005  0.9709429419828340
 50.5740240652691995 85.3523047252975005  0.9709429419828340
 54.4643336733059016 85.3523047252975005  0.9709429419828340
 58.3546432813427032 85.3523047252975005  0.9709429419828340
 62.2449528893793982 85.3523047252975005  0.9709429419828340
 66.1352624974160932 85.3523047252975005  0.9709429419828340
 70.0255721054527953 85.3523047252975005  0.9709429419828340
 73.9158817134894974 85.3523047252975005  0.9709429419828340
 77.8061913215262990 85.3523047252975005  0.9709429419828340
 81.6965009295630011 85.3523047252975005  0.9709429419828340
 85.5868105375997033 85.3523047252975005  0.9709429419828340
 89.4771201456364054 85.3523047252975005  0.9709429419828340
 93.3674297536732070 85.3523047252975005  0.9709429419828340
 97.2577393617098949 85.3523047252975005  0.9709429419828340
 101.1480489697469949 85.3523047252975005  0.9709429419828340
 105.0383585777830007 85.3523047252975005  0.9709429419828340
 108.9286681858200012 85.3523047252975005  0.9709429419828340
 112.8189777938570018 85.3523047252975005  0.9709429419828340
 116.7092874018929933 85.3523047252975005  0.9709429419828340
 120.5995970099299939 85.3523047252975005  0.9709429419828340
 124.4899066179669944 85.3523047252975005  0.9709429419828340
 128.3802162260039950 85.3523047252975005  0.9709429419828340
 132.2705258340400007 85.3523047252975005  0.9709429419828340
 136.1608354420770013 85.3523047252975005  0.9709429419828340
 140.0511450501140018 85.3523047252975005  0.9709429419828340
  1.9451545136876700 81.9831186366828035  0.9712827974610750
  5.8354641217243897 81.9831186366828035  0.9712827974610750
  9.7257737297611104 81.9831186366828035  0.9712827974610750
 13.6160833377978001 81.9831186366828035  0.9712827974610750
 17.5063929458346017 81.9831186366828035  0.9712827974610750
 21.3967025538713003 81.9831186366828035  0.9712827974610750
 25.2870121619079988 81.9831186366828035  0.9712827974610750
 29.1773217699447009 81.9831186366828035  0.9712827974610750
 33.0676313779813995 81.9831186366828035  0.9712827974610750
 36.9579409860182011 81.9831186366828035  0.9712827974610750
 40.8482505940549032 81.9831186366828035  0.9712827974610750
 44.7385602020915982 81.9831186366828035  0.9712827974610750
 48.6288698101283003 81.9831186366828035  0.9712827974610750
 52.5191794181650025 81.9831186366828035  0.9712827974610750
 56.4094890262017969 81.9831186366828035  0.9712827974610750
 60.2997986342384991 81.9831186366828035  0.9712827974610750
 64.1901082422752012 81.9831186366828035  0.9712827974610750
 68.0804178503119033 81.9831186366828035  0.9712827974610750
 71.9707274583486054 81.9831186366828035  0.9712827974610750
 75.8610370663854070 81.9831186366828035  0.9712827974610750
 79.7513466744220949 81.9831186366828035  0.9712827974610750
 83.6416562824587970 81.9831186366828035  0.9712827974610750
 87.5319658904955986 81.9831186366828035  0.9712827974610750
 91.4222754985323007 81.9831186366828035  0.9712827974610750
 95.3125851065690028 81.9831186366828035  0.9712827974610750
 99.2028947146057050 81.9831186366828035  0.9712827974610750
 103.0932043226419950 81.9831186366828035  0.9712827974610750
 106.9835139306789955 81.9831186366828035  0.9712827974610750
 110.8738235387159961 81.9831186366828035  0.9712827974610750
 114.7641331467529966 81.9831186366828035  0.9712827974610750
 118.6544427547890024 81.9831186366828035  0.9712827974610750
 122.5447523628260029 81.9831186366828035  0.9712827974610750
 126.4350619708630035 81.9831186366828035  0.9712827974610750
 130.3253715788989950 81.9831186366828035  0.9712827974610750
 134.2156811869359956 81.9831186366828035  0.9712827974610750
 138.1059907949729961 81.9831186366828035  0.9712827974610750
  3.8903087688285600 78.6139325480679929  0.9716226529393150
  7.7806183768652799 78.6139325480679929  0.9716226529393150
 11.6709279849020007 78.6139325480679929  0.9716226529393150
 15.5612375929386992 78.6139325480679929  0.9716226529393150
 19.4515472009754014 78.6139325480679929  0.9716226529393150
 23.3418568090121994 78.6139325480679929  0.9716226529393150
 27.2321664170489015 78.6139325480679929  0.9716226529393150
 31.1224760250856001 78.6139325480679929  0.9716226529393150
 35.0127856331222986 78.6139325480679929  0.9716226529393150
 38.9030952411591002 78.6139325480679929  0.9716226529393150
 42.7934048491958023 78.6139325480679929  0.9716226529393150
 46.6837144572324974 78.6139325480679929  0.9716226529393150
 50.5740240652691995 78.6139325480679929  0.9716226529393150
 54.4643336733059016 78.6139325480679929  0.9716226529393150
 58.3546432813427032 78.6139325480679929  0.9716226529393150
 62.2449528893793982 78.6139325480679929  0.9716226529393150
 66.1352624974160932 78.6139325480679929  0.9716226529393150
 70.0255721054527953 78.6139325480679929  0.9716226529393150
 73.9158817134894974 78.6139325480679929  0.9716226529393150
 77.8061913215262990 78.6139325480679929  0.9716226529393150
 81.6965009295630011 78.6139325480679929  0.9716226529393150
 85.5868105375997033 78.6139325480679929  0.9716226529393150
 89.4771201456364054 78.6139325480679929  0.9716226529393150
 93.3674297536732070 78.6139325480679929  0.9716226529393150
 97.2577393617098949 78.6139325480679929  0.9716226529393150
 101.1480489697469949 78.6139325480679929  0.9716226529393150
 105.0383585777830007 78.6139325480679929  0.9716226529393150
 108.9286681858200012 78.6139325480679929  0.9716226529393150
 112.8189777938570018 78.6139325480679929  0.9716226529393150
 116.7092874018929933 78.6139325480679929  0.9716226529393150
 120.5995970099299939 78.6139325480679929  0.9716226529393150
 124.4899066179669944 78.6139325480679929  0.9716226529393150
 128.3802162260039950 78.6139325480679929  0.9716226529393150
 132.2705258340400007 78.6139325480679929  0.9716226529393150
 136.1608354420770013 78.6139325480679929  0.9716226529393150
 140.0511450501140018 78.6139325480679929  0.9716226529393150
  1.9451545136876700 75.2447464594531965  0.9719625084175560
  5.8354641217243897 75.2447464594531965  0.9719625084175560
  9.7257737297611104 75.2447464594531965  0.9719625084175560
 13.6160833377978001 75.2447464594531965  0.9719625084175560
 17.5063929458346017 75.2447464594531965  0.9719625084175560
 21.3967025538713003 75.2447464594531965  0.9719625084175560
 25.2870121619079988 75.2447464594531965  0.9719625084175560
 29.1773217699447009 75.2447464594531965  0.9719625084175560
 33.0676313779813995 75.2447464594531965  0.9719625084175560
 36.9579409860182011 75.2447464594531965  0.9719625084175560
 40.8482505940549032 75.2447464594531965  0.9719625084175560
 44.7385602020915982 75.2447464594531965  0.9719625084175560
 48.6288698101283003 75.2447464594531965  0.9719625084175560
 52.5191794181650025 75.2447464594531965  0.9719625084175560